pure_adt/tip2015_weird_nat_add3_comm13.smt2
(set-logic HORN)
(declare-datatypes ((Nat_187 0)) (((zero_13 ) (succ_13 (p_38 Nat_187)))))
(declare-fun diseqNat_187 (Nat_187 Nat_187) Bool)
(declare-fun p_39 (Nat_187 Nat_187) Bool)
(declare-fun iszero_13 (Nat_187) Bool)
(declare-fun issucc_13 (Nat_187) Bool)
(assert (forall ((x_11942 Nat_187))
	(p_39 x_11942 (succ_13 x_11942))))
(assert (iszero_13 zero_13))
(assert (forall ((x_11944 Nat_187))
	(issucc_13 (succ_13 x_11944))))
(assert (forall ((x_11945 Nat_187))
	(diseqNat_187 zero_13 (succ_13 x_11945))))
(assert (forall ((x_11946 Nat_187))
	(diseqNat_187 (succ_13 x_11946) zero_13)))
(assert (forall ((x_11947 Nat_187) (x_11948 Nat_187))
	(=> (diseqNat_187 x_11947 x_11948)
	    (diseqNat_187 (succ_13 x_11947) (succ_13 x_11948)))))
(declare-fun plus_11 (Nat_187 Nat_187 Nat_187) Bool)
(assert (forall ((x_11921 Nat_187) (z_533 Nat_187) (y_471 Nat_187))
	(=> (plus_11 x_11921 z_533 y_471)
	    (plus_11 (succ_13 x_11921) (succ_13 z_533) y_471))))
(assert (forall ((x_11922 Nat_187))
	(plus_11 x_11922 zero_13 x_11922)))
(declare-fun add_102 (Nat_187 Nat_187 Nat_187 Nat_187) Bool)
(assert (forall ((x_11923 Nat_187) (x_11924 Nat_187) (x_11913 Nat_187) (y_472 Nat_187) (z_534 Nat_187))
	(=>	(and (add_102 x_11924 x_11913 y_472 z_534)
			(plus_11 x_11923 (succ_13 zero_13) x_11924))
		(add_102 x_11923 (succ_13 x_11913) y_472 z_534))))
(assert (forall ((x_11926 Nat_187) (x_11927 Nat_187) (x_11914 Nat_187) (z_534 Nat_187))
	(=>	(and (add_102 x_11927 zero_13 x_11914 z_534)
			(plus_11 x_11926 (succ_13 zero_13) x_11927))
		(add_102 x_11926 zero_13 (succ_13 x_11914) z_534))))
(assert (forall ((x_11929 Nat_187))
	(add_102 x_11929 zero_13 zero_13 x_11929)))
(assert (forall ((x_11930 Nat_187) (x_11931 Nat_187) (x_11915 Nat_187) (y_473 Nat_187) (z_535 Nat_187))
	(=>	(and true
			(diseqNat_187 x_11930 x_11931)
			(add_102 x_11930 x_11915 y_473 z_535)
			(add_102 x_11931 z_535 y_473 x_11915))
		false)))
(assert (forall ((x_11932 Nat_187) (x_11933 Nat_187) (x_11934 Nat_187) (x_11935 Nat_187) (x_11916 Nat_187) (y_474 Nat_187) (z_536 Nat_187))
	(=>	(and true
			(diseqNat_187 x_11933 x_11935)
			(plus_11 x_11932 y_474 z_536)
			(plus_11 x_11933 x_11916 x_11932)
			(plus_11 x_11934 x_11916 y_474)
			(plus_11 x_11935 x_11934 z_536))
		false)))
(assert (forall ((x_11936 Nat_187) (x_11937 Nat_187) (x_11917 Nat_187) (y_475 Nat_187))
	(=>	(and true
			(diseqNat_187 x_11936 x_11937)
			(plus_11 x_11936 x_11917 y_475)
			(plus_11 x_11937 y_475 x_11917))
		false)))
(assert (forall ((x_11938 Nat_187) (x_11918 Nat_187))
	(=>	(and true
			(diseqNat_187 x_11938 x_11918)
			(plus_11 x_11938 x_11918 zero_13))
		false)))
(assert (forall ((x_11939 Nat_187) (x_11919 Nat_187))
	(=>	(and true
			(diseqNat_187 x_11939 x_11919)
			(plus_11 x_11939 zero_13 x_11919))
		false)))
(check-sat)
